c SAT encoding of the HCVip problem
c Generation time: 151 millisec
c START DICTIONARY
c in[0, 0]=1
c in[0, 1]=2
c in[0, 2]=3
c in[0, 3]=4
c in[0, 4]=5
c in[0, 5]=6
c in[1, 0]=7
c in[1, 1]=8
c in[1, 2]=9
c in[1, 3]=10
c in[1, 4]=11
c in[1, 5]=12
c in[2, 0]=13
c in[2, 1]=14
c in[2, 2]=15
c in[2, 3]=16
c in[2, 4]=17
c in[2, 5]=18
c in[3, 0]=19
c in[3, 1]=20
c in[3, 2]=21
c in[3, 3]=22
c in[3, 4]=23
c in[3, 5]=24
c in[4, 0]=25
c in[4, 1]=26
c in[4, 2]=27
c in[4, 3]=28
c in[4, 4]=29
c in[4, 5]=30
c END DICTIONARY
p cnf 30 179
1 7 13 19 25 0
2 8 14 20 26 0
3 9 15 21 27 0
4 10 16 22 28 0
5 11 17 23 29 0
6 12 18 24 30 0
-1 -7 0
-1 -13 0
-1 -19 0
-1 -25 0
-7 -13 0
-7 -19 0
-7 -25 0
-13 -19 0
-13 -25 0
-19 -25 0
-2 -8 0
-2 -14 0
-2 -20 0
-2 -26 0
-8 -14 0
-8 -20 0
-8 -26 0
-14 -20 0
-14 -26 0
-20 -26 0
-3 -9 0
-3 -15 0
-3 -21 0
-3 -27 0
-9 -15 0
-9 -21 0
-9 -27 0
-15 -21 0
-15 -27 0
-21 -27 0
-4 -10 0
-4 -16 0
-4 -22 0
-4 -28 0
-10 -16 0
-10 -22 0
-10 -28 0
-16 -22 0
-16 -28 0
-22 -28 0
-5 -11 0
-5 -17 0
-5 -23 0
-5 -29 0
-11 -17 0
-11 -23 0
-11 -29 0
-17 -23 0
-17 -29 0
-23 -29 0
-6 -12 0
-6 -18 0
-6 -24 0
-6 -30 0
-12 -18 0
-12 -24 0
-12 -30 0
-18 -24 0
-18 -30 0
-24 -30 0
1 0
-2 0
-3 0
-4 0
-5 0
6 0
-7 -8 0
-8 -9 0
-9 -10 0
-10 -11 0
-11 -12 0
-7 -20 0
-8 -21 0
-9 -22 0
-10 -23 0
-11 -24 0
-13 -14 0
-14 -15 0
-15 -16 0
-16 -17 0
-17 -18 0
-13 -26 0
-14 -27 0
-15 -28 0
-16 -29 0
-17 -30 0
-19 -14 0
-20 -15 0
-21 -16 0
-22 -17 0
-23 -18 0
-19 -20 0
-20 -21 0
-21 -22 0
-22 -23 0
-23 -24 0
-25 -8 0
-26 -9 0
-27 -10 0
-28 -11 0
-29 -12 0
-25 -20 0
-26 -21 0
-27 -22 0
-28 -23 0
-29 -24 0
-25 -26 0
-26 -27 0
-27 -28 0
-28 -29 0
-29 -30 0
-7 -8 0
-13 -14 0
-19 -20 0
-25 -26 0
-7 -9 0
-13 -15 0
-19 -21 0
-25 -27 0
-7 -10 0
-13 -16 0
-19 -22 0
-25 -28 0
-7 -11 0
-13 -17 0
-19 -23 0
-25 -29 0
-7 -12 0
-13 -18 0
-19 -24 0
-25 -30 0
-8 -9 0
-14 -15 0
-20 -21 0
-26 -27 0
-8 -10 0
-14 -16 0
-20 -22 0
-26 -28 0
-8 -11 0
-14 -17 0
-20 -23 0
-26 -29 0
-8 -12 0
-14 -18 0
-20 -24 0
-26 -30 0
-9 -10 0
-15 -16 0
-21 -22 0
-27 -28 0
-9 -11 0
-15 -17 0
-21 -23 0
-27 -29 0
-9 -12 0
-15 -18 0
-21 -24 0
-27 -30 0
-10 -11 0
-16 -17 0
-22 -23 0
-28 -29 0
-10 -12 0
-16 -18 0
-22 -24 0
-28 -30 0
-11 -12 0
-17 -18 0
-23 -24 0
-29 -30 0
-16 0
-17 0
